\* Problem: Unknown *\

Maximize
 obj: + xp_0_0 + xp_1_0 + xp_1_1 + xp_2_0 + xp_2_1 + xp_3_0 + xp_3_1
 + xp_4_0 + xp_4_1 + xp_5_0 + xp_6_0 + xp_7_0 + xp_8_0 + xp_9_0 + xp_9_1
 + xp_10_0 + xp_11_0 + xp_11_1 + xp_12_0 + xp_12_1 + xp_13_0 + xp_13_1
 + xp_13_2 + xp_14_0 + xp_14_1 + xp_15_0 + xp_16_0 + xp_17_0 + xp_17_1
 + xp_18_0 + xp_18_1 + xp_18_2 + xp_18_3 + xp_19_0 + xp_19_1 + xp_20_0
 + xp_21_0 + xp_22_0 + xp_22_1 + xp_23_0 + xp_24_0 + xp_24_1 + xp_24_2
 + xp_25_0 + xp_26_0 + xp_26_1 + xp_27_0 + xp_28_0 + xp_28_1 + xp_29_0
 + xp_30_0 + xp_30_1 + xp_31_0 + xp_32_0 + xp_32_1 + xp_33_0 + xp_34_0
 + xp_34_1 + xp_35_0 + xp_36_0 + xp_37_0 + xp_38_0 + xp_38_1 + xp_39_0
 + xp_40_0 + xp_40_1 + xp_40_2 + xp_41_0 + xp_41_1 + xp_42_0 + xp_42_1
 + xp_42_2 + xp_43_0 + xp_44_0 + xp_45_0 + xp_45_1 + xp_45_2 + xp_46_0
 + xp_47_0 + xp_48_0 + xp_49_0 + xp_50_0 + xp_50_1 + xp_51_0 + xp_52_0
 + xp_53_0 + xp_53_1 + xp_54_0 + xp_55_0 + xp_56_0 + xp_57_0 + xp_57_1
 + xp_58_0 + xp_59_0 + xp_60_0 + xp_60_1 + xp_61_0 + xp_61_1 + xp_62_0
 + xp_63_0 + xp_63_1 + xp_64_0 + xp_65_0 + xp_65_1 + xp_66_0 + xp_67_0
 + xp_67_1 + xp_68_0 + xp_68_1 + xp_69_0 + xp_70_0 + xp_71_0 + xp_72_0
 + xp_73_0 + xp_74_0 + xp_75_0 + xp_76_0 + xp_77_0 + xp_77_1 + xp_77_2
 + xp_78_0 + xp_78_1 + xp_78_2 + xp_78_3 + xp_79_0 + xp_79_1 + xp_79_2
 + xp_80_0 + xp_80_1 + xp_81_0 + xp_81_1 + xp_82_0 + xp_82_1 + xp_82_2
 + xp_83_0 + xp_83_1 + xp_84_0 + xp_85_0 + xp_85_1 + xp_85_2 + xp_85_3
 + xp_86_0 + xp_86_1 + xp_87_0 + xp_88_0 + xp_88_1 + xp_89_0 + xp_90_0
 + xp_90_1 + xp_91_0 + xp_91_1 + xp_91_2 + xp_92_0 + xp_93_0 + xp_94_0
 + xp_94_1 + xp_95_0 + xp_95_1 + xp_95_2 + xp_96_0 + xp_97_0 + xp_98_0
 + xp_98_1 + xp_98_2 + xp_99_0 + xp_99_1 + xp_99_2 + xp_100_0 + xp_101_0
 + xp_102_0 + xp_103_0 + xp_104_0 + xp_105_0 + xp_105_1 + xp_106_0
 + xp_106_1 + xp_107_0 + xp_108_0 + xp_108_1 + xp_108_2 + xp_109_0
 + xp_109_1 + xp_110_0 + xp_111_0 + xp_111_1 + xp_112_0 + xp_112_1
 + xp_113_0 + xp_114_0 + xp_115_0 + xp_115_1 + xp_116_0 + xp_116_1
 + xp_117_0 + xp_118_0 + xp_119_0 + xp_119_1 + xp_120_0 + xp_121_0
 + xp_122_0 + xp_123_0 + xp_123_1 + xp_124_0 + xp_124_1 + xp_125_0
 + xp_125_1 + xp_126_0 + xp_126_1 + xp_126_2 + xp_127_0 + xp_127_1
 + xp_128_0 + xp_128_1 + xp_128_2 + xp_129_0 + xp_129_1 + xp_130_0
 + xp_131_0 + xp_131_1 + xp_131_2

Subject To
 r_1: + xp_128_2 + xp_128_1 + xp_123_1 + xp_122_0 + xp_121_0 + xp_108_1
 + xp_107_0 + xp_78_3 + xp_67_1 + xp_57_1 + xp_40_2 + xp_40_1 + xp_25_0
 + xp_22_1 + xp_18_3 + xp_18_2 + xp_18_1 + xp_16_0 + xp_13_2 + xp_13_1
 + xp_4_1 + xp_4_0 <= 39177.1539206196
 r_2: + xp_131_2 + xp_131_0 + xp_127_0 + xp_126_1 + xp_120_0 + xp_94_1
 + xp_93_0 + xp_90_1 + xp_85_3 + xp_85_2 + xp_85_1 + xp_85_0 + xp_77_2
 + xp_77_1 + xp_75_0 + xp_71_0 + xp_66_0 + xp_65_1 + xp_65_0 + xp_61_1
 + xp_55_0 + xp_52_0 + xp_48_0 + xp_42_2 + xp_42_1 + xp_38_1 + xp_32_0
 + xp_28_1 + xp_28_0 + xp_24_1 + xp_24_0 + xp_19_1 + xp_19_0 + xp_12_1
 + xp_1_1 <= 34909.426987061
 r_3: + xp_124_1 + xp_114_0 + xp_105_1 + xp_95_1 + xp_91_1 + xp_85_3
 + xp_83_1 + xp_79_1 + xp_76_0 + xp_41_1 + xp_34_0 <= 37964.8842777334
 r_4: + xp_117_0 + xp_95_2 + xp_95_0 + xp_91_2 + xp_91_0 + xp_88_1
 + xp_84_0 + xp_82_2 + xp_79_2 + xp_79_0 + xp_46_0 + xp_43_0 + xp_40_2
 + xp_40_1 + xp_40_0 + xp_34_1 <= 35917.2202350537
 r_5: + xp_130_0 + xp_99_0 + xp_88_1 + xp_82_2 + xp_7_0 + xp_2_0
 <= 37964.8842777334
 r_6: + xp_126_2 + xp_119_0 + xp_114_0 + xp_95_1 + xp_91_1 + xp_83_1
 + xp_83_0 + xp_82_1 + xp_81_0 + xp_79_1 + xp_70_0 + xp_68_1 + xp_53_0
 + xp_45_0 + xp_34_0 + xp_32_1 + xp_30_1 + xp_18_1 <= 39484.32760364
 r_7: + xp_119_1 + xp_112_1 + xp_111_1 + xp_104_0 + xp_88_0 + xp_82_0
 + xp_81_1 + xp_78_1 + xp_53_1 + xp_50_1 + xp_45_2 + xp_45_1 + xp_44_0
 + xp_27_0 + xp_18_3 + xp_18_2 + xp_18_0 + xp_4_1 + xp_3_1
 <= 35917.2202350537
 r_8: + xp_131_2 + xp_131_0 + xp_127_0 + xp_126_1 + xp_120_0 + xp_118_0
 + xp_103_0 + xp_94_1 + xp_90_1 + xp_77_2 + xp_77_1 + xp_71_0 + xp_61_1
 + xp_55_0 + xp_42_2 + xp_42_1 + xp_38_1 + xp_32_0 + xp_24_1 + xp_24_0
 + xp_12_1 + xp_1_1 <= 39177.1539206196
 r_9: + xp_131_1 + xp_127_1 + xp_123_1 + xp_122_0 + xp_108_1 + xp_78_3
 + xp_77_0 + xp_67_1 + xp_57_1 + xp_42_0 + xp_33_0 + xp_32_1 + xp_24_2
 <= 39177.1539206196
 r_10: + xp_112_1 + xp_111_1 + xp_106_0 + xp_99_0 + xp_98_0 + xp_94_1
 + xp_88_1 + xp_88_0 + xp_85_0 + xp_78_1 + xp_50_1 + xp_26_0 + xp_24_0
 + xp_8_0 + xp_7_0 + xp_4_1 + xp_3_1 + xp_2_0 <= 39484.32760364
 r_11: + xp_119_0 + xp_112_0 + xp_111_0 + xp_95_1 + xp_91_1 + xp_82_1
 + xp_81_0 + xp_79_1 + xp_78_3 + xp_78_2 + xp_78_0 + xp_59_0 + xp_53_0
 + xp_50_0 + xp_49_0 + xp_45_0 + xp_34_0 + xp_18_1 + xp_4_0 + xp_3_0
 <= 36228.508042152
 r_12: + xp_129_1 + xp_128_2 + xp_128_0 + xp_123_1 + xp_123_0 + xp_119_1
 + xp_117_0 + xp_112_1 + xp_111_1 + xp_108_2 + xp_101_0 + xp_95_0
 + xp_91_2 + xp_82_2 + xp_82_0 + xp_81_1 + xp_80_1 + xp_79_2 + xp_78_1
 + xp_78_0 + xp_73_0 + xp_63_1 + xp_60_1 + xp_50_1 + xp_46_0 + xp_45_1
 + xp_44_0 + xp_40_2 + xp_40_0 + xp_18_2 + xp_18_0 + xp_17_1 + xp_15_0
 + xp_14_0 + xp_13_2 + xp_13_0 + xp_9_0 + xp_4_1 <= 36001.0454783063
 r_13: + xp_129_0 + xp_128_1 + xp_109_1 + xp_100_0 + xp_95_2 + xp_91_0
 + xp_90_0 + xp_80_0 + xp_79_0 + xp_68_0 + xp_63_0 + xp_60_0 + xp_53_1
 + xp_45_2 + xp_40_1 + xp_34_1 + xp_31_0 + xp_30_0 + xp_18_3 + xp_17_0
 + xp_13_1 + xp_9_1 <= 36228.508042152
 r_14: + xp_131_2 + xp_131_1 + xp_131_0 + xp_126_2 + xp_125_1 + xp_125_0
 + xp_124_1 + xp_124_0 + xp_115_1 + xp_115_0 + xp_106_1 + xp_99_2
 + xp_99_1 + xp_98_2 + xp_98_1 + xp_94_0 + xp_86_1 + xp_86_0 + xp_85_3
 + xp_85_2 + xp_85_1 + xp_77_2 + xp_77_1 + xp_77_0 + xp_68_1 + xp_65_1
 + xp_65_0 + xp_56_0 + xp_51_0 + xp_41_1 + xp_41_0 + xp_38_1 + xp_38_0
 + xp_35_0 + xp_32_1 + xp_30_1 + xp_26_1 + xp_24_2 + xp_24_1 + xp_20_0
 + xp_19_1 + xp_19_0 + xp_12_1 + xp_12_0 + xp_2_1 + xp_0_0
 <= 35917.2202350537
 r_15: + xp_131_1 + xp_131_0 + xp_126_2 + xp_125_0 + xp_124_1 + xp_124_0
 + xp_116_0 + xp_115_0 + xp_109_1 + xp_99_1 + xp_98_1 + xp_94_0
 + xp_90_0 + xp_89_0 + xp_86_0 + xp_85_3 + xp_85_1 + xp_77_2 + xp_77_0
 + xp_68_1 + xp_68_0 + xp_65_0 + xp_51_0 + xp_42_1 + xp_42_0 + xp_38_0
 + xp_36_0 + xp_32_1 + xp_28_0 + xp_26_1 + xp_24_2 + xp_24_1 + xp_19_1
 + xp_12_0 + xp_11_1 + xp_0_0 <= 36001.0454783063
 r_16: + xp_128_0 + xp_123_0 + xp_108_2 + xp_108_0 + xp_78_2 + xp_78_1
 + xp_78_0 + xp_73_0 + xp_67_0 + xp_57_0 + xp_46_0 + xp_44_0 + xp_40_0
 + xp_22_0 + xp_18_0 + xp_13_0 + xp_6_0 <= 36001.0454783063
 r_17: + xp_129_1 + xp_128_2 + xp_126_0 + xp_123_1 + xp_119_1 + xp_112_1
 + xp_111_1 + xp_109_0 + xp_97_0 + xp_95_0 + xp_91_2 + xp_81_1 + xp_80_1
 + xp_79_2 + xp_63_1 + xp_62_0 + xp_61_0 + xp_60_1 + xp_47_0 + xp_45_1
 + xp_40_2 + xp_22_1 + xp_18_2 + xp_17_1 + xp_13_2 + xp_9_0 + xp_4_1
 + xp_1_0 <= 34909.426987061
 r_18: + xp_126_1 + xp_126_0 + xp_106_0 + xp_99_0 + xp_98_0 + xp_94_1
 + xp_92_0 + xp_85_0 + xp_68_0 + xp_58_0 + xp_48_0 + xp_32_0 + xp_30_0
 + xp_26_0 + xp_24_0 + xp_5_0 + xp_2_0 <= 36228.508042152
 r_19: + xp_131_2 + xp_125_1 + xp_116_1 + xp_115_1 + xp_110_0 + xp_108_2
 + xp_106_1 + xp_99_2 + xp_98_2 + xp_86_1 + xp_85_2 + xp_78_0 + xp_77_1
 + xp_65_1 + xp_56_0 + xp_42_2 + xp_38_1 + xp_28_1 + xp_19_0 + xp_14_0
 + xp_12_1 + xp_11_0 + xp_3_0 + xp_2_1 <= 36228.508042152
 r_20: + xp_129_0 + xp_128_1 + xp_119_0 + xp_112_0 + xp_111_0 + xp_108_1
 + xp_108_0 + xp_107_0 + xp_95_2 + xp_95_1 + xp_91_1 + xp_91_0 + xp_82_1
 + xp_81_0 + xp_80_0 + xp_79_1 + xp_79_0 + xp_78_3 + xp_78_2 + xp_69_0
 + xp_64_0 + xp_63_0 + xp_60_0 + xp_50_0 + xp_49_0 + xp_45_2 + xp_45_0
 + xp_40_1 + xp_18_3 + xp_18_1 + xp_17_0 + xp_14_1 + xp_13_1 + xp_10_0
 + xp_9_1 + xp_4_0 <= 34909.426987061
 r_21: + xp_124_1 + xp_113_0 + xp_105_1 + xp_99_2 + xp_99_1 + xp_86_1
 + xp_86_0 + xp_85_3 + xp_83_1 + xp_77_2 + xp_77_1 + xp_77_0 + xp_65_1
 + xp_65_0 + xp_41_1 + xp_38_1 + xp_38_0 + xp_20_0 + xp_2_1 + xp_0_0
 <= 35917.2202350537
 r_22: + xp_126_2 + xp_124_0 + xp_106_1 + xp_105_0 + xp_98_2 + xp_98_1
 + xp_94_0 + xp_85_2 + xp_85_1 + xp_83_0 + xp_68_1 + xp_41_0 + xp_32_1
 + xp_30_1 + xp_26_1 + xp_24_2 + xp_24_1 <= 35917.2202350537
 r_23: + xp_128_2 + xp_128_1 + xp_128_0 + xp_119_1 + xp_117_0 + xp_112_1
 + xp_111_1 + xp_104_0 + xp_100_0 + xp_95_2 + xp_95_0 + xp_91_2
 + xp_91_0 + xp_84_0 + xp_82_2 + xp_82_0 + xp_81_1 + xp_80_1 + xp_80_0
 + xp_79_2 + xp_79_0 + xp_78_1 + xp_73_0 + xp_60_1 + xp_60_0 + xp_53_1
 + xp_50_1 + xp_46_0 + xp_45_2 + xp_45_1 + xp_44_0 + xp_40_2 + xp_40_1
 + xp_40_0 + xp_34_1 + xp_21_0 + xp_18_3 + xp_18_2 + xp_18_0 + xp_15_0
 + xp_9_1 + xp_9_0 + xp_4_1 + xp_3_1 <= 35917.2202350537
 r_24: + xp_128_0 + xp_126_1 + xp_103_0 + xp_94_1 + xp_90_1 + xp_61_1
 + xp_40_0 + xp_39_0 + xp_38_1 + xp_22_0 + xp_18_0 + xp_13_0 + xp_12_1
 + xp_1_1 <= 39177.1539206196
 r_25: + xp_131_1 + xp_127_1 + xp_126_2 + xp_126_0 + xp_94_0 + xp_90_0
 + xp_89_0 + xp_77_0 + xp_74_0 + xp_61_0 + xp_42_0 + xp_38_0 + xp_32_1
 + xp_24_2 + xp_12_0 + xp_1_0 <= 36001.0454783063
 r_26: + xp_128_2 + xp_128_1 + xp_123_1 + xp_121_0 + xp_112_1 + xp_112_0
 + xp_108_1 + xp_107_0 + xp_81_1 + xp_81_0 + xp_79_2 + xp_79_1 + xp_79_0
 + xp_78_3 + xp_67_1 + xp_64_0 + xp_60_1 + xp_60_0 + xp_57_1 + xp_47_0
 + xp_40_2 + xp_40_1 + xp_37_0 + xp_29_0 + xp_25_0 + xp_22_1 + xp_18_3
 + xp_18_2 + xp_18_1 + xp_17_1 + xp_17_0 + xp_13_2 + xp_13_1 + xp_4_1
 + xp_4_0 <= 34909.426987061
 r_27: + xp_131_0 + xp_127_0 + xp_125_0 + xp_116_0 + xp_115_0 + xp_108_0
 + xp_99_1 + xp_98_1 + xp_86_0 + xp_85_3 + xp_85_1 + xp_82_1 + xp_78_2
 + xp_77_2 + xp_72_0 + xp_67_0 + xp_65_0 + xp_57_0 + xp_52_0 + xp_50_0
 + xp_42_1 + xp_28_0 + xp_26_1 + xp_24_1 + xp_23_0 + xp_19_1 + xp_14_1
 + xp_11_1 <= 34909.426987061
 r_28: + xp_131_2 + xp_126_1 + xp_126_0 + xp_125_1 + xp_120_0 + xp_116_1
 + xp_115_1 + xp_109_0 + xp_99_2 + xp_99_0 + xp_98_2 + xp_98_0 + xp_96_0
 + xp_94_1 + xp_92_0 + xp_90_1 + xp_86_1 + xp_85_2 + xp_85_0 + xp_77_1
 + xp_75_0 + xp_65_1 + xp_58_0 + xp_54_0 + xp_48_0 + xp_42_2 + xp_38_1
 + xp_32_0 + xp_28_1 + xp_26_0 + xp_24_0 + xp_19_0 + xp_12_1 + xp_11_0
 <= 34909.426987061
 r_29: + xp_129_1 + xp_129_0 + xp_95_2 + xp_95_1 + xp_95_0 + xp_93_0
 + xp_87_0 + xp_71_0 + xp_62_0 + xp_49_0 + xp_45_2 + xp_45_1 + xp_45_0
 + xp_10_0 + xp_9_1 + xp_9_0 + xp_1_1 + xp_1_0 <= 34909.426987061
 r_30: + xp_125_1 + xp_125_0 + xp_121_0 + xp_102_0 + xp_99_2 + xp_99_1
 + xp_99_0 + xp_96_0 + xp_92_0 + xp_57_1 + xp_57_0 + xp_37_0 + xp_26_1
 + xp_26_0 + xp_23_0 + xp_11_1 + xp_11_0 <= 34909.426987061

Bounds
 0 <= xp_0_0 <= 234.205673141777
 0 <= xp_1_0 <= 72.4860016315892
 0 <= xp_1_1 <= 108.729002447384
 0 <= xp_2_0 <= 22.8317821023688
 0 <= xp_2_1 <= 91.3271284094753
 0 <= xp_3_0 <= 72.3813287050454
 0 <= xp_3_1 <= 108.571993057568
 0 <= xp_4_0 <= 626.415128901438
 0 <= xp_4_1 <= 156.603782225359
 0 <= xp_5_0 <= 1075.31805850039
 0 <= xp_6_0 <= 1778.58928371662
 0 <= xp_7_0 <= 633.532887906417
 0 <= xp_8_0 <= 1498.52378463284
 0 <= xp_9_0 <= 64.4523545193517
 0 <= xp_9_1 <= 42.9682363462345
 0 <= xp_10_0 <= 54.4299218027818
 0 <= xp_11_0 <= 24.7289788959754
 0 <= xp_11_1 <= 16.4859859306503
 0 <= xp_12_0 <= 1641.42849759677
 0 <= xp_12_1 <= 410.357124399194
 0 <= xp_13_0 <= 100.041149544248
 0 <= xp_13_1 <= 50.0205747721238
 0 <= xp_13_2 <= 100.041149544248
 0 <= xp_14_0 <= 87.3233889691745
 0 <= xp_14_1 <= 130.985083453762
 0 <= xp_15_0 <= 503.345935517552
 0 <= xp_16_0 <= 2621.33718355248
 0 <= xp_17_0 <= 176.910329974859
 0 <= xp_17_1 <= 117.940219983239
 0 <= xp_18_0 <= 142.538357721035
 0 <= xp_18_1 <= 71.2691788605174
 0 <= xp_18_2 <= 71.2691788605174
 0 <= xp_18_3 <= 71.2691788605174
 0 <= xp_19_0 <= 630.471204805011
 0 <= xp_19_1 <= 420.314136536674
 0 <= xp_20_0 <= 127.30844690891
 0 <= xp_21_0 <= 272.476711909358
 0 <= xp_22_0 <= 489.215090434137
 0 <= xp_22_1 <= 733.822635651206
 0 <= xp_23_0 <= 51.6168369019169
 0 <= xp_24_0 <= 202.89538398936
 0 <= xp_24_1 <= 67.63179466312
 0 <= xp_24_2 <= 67.63179466312
 0 <= xp_25_0 <= 574.588946146433
 0 <= xp_26_0 <= 12.194395942354
 0 <= xp_26_1 <= 3.0485989855885
 0 <= xp_27_0 <= 335.476729572915
 0 <= xp_28_0 <= 397.626279708303
 0 <= xp_28_1 <= 265.084186472202
 0 <= xp_29_0 <= 2430.37451318912
 0 <= xp_30_0 <= 72.8261886428566
 0 <= xp_30_1 <= 109.239282964285
 0 <= xp_31_0 <= 189.261735307029
 0 <= xp_32_0 <= 1788.1799406112
 0 <= xp_32_1 <= 447.044985152799
 0 <= xp_33_0 <= 8002.70317832799
 0 <= xp_34_0 <= 202.908468105178
 0 <= xp_34_1 <= 304.362702157767
 0 <= xp_35_0 <= 259.196334354112
 0 <= xp_36_0 <= 316.701023374119
 0 <= xp_37_0 <= 362.299166999766
 0 <= xp_38_0 <= 265.973906347824
 0 <= xp_38_1 <= 66.493476586956
 0 <= xp_39_0 <= 1562.37426982456
 0 <= xp_40_0 <= 337.282337555796
 0 <= xp_40_1 <= 168.641168777898
 0 <= xp_40_2 <= 337.282337555796
 0 <= xp_41_0 <= 63.4841299488215
 0 <= xp_41_1 <= 15.8710324872054
 0 <= xp_42_0 <= 180.403788898259
 0 <= xp_42_1 <= 90.2018944491293
 0 <= xp_42_2 <= 180.403788898259
 0 <= xp_43_0 <= 488.626305222329
 0 <= xp_44_0 <= 455.392651044668
 0 <= xp_45_0 <= 25.3570164552383
 0 <= xp_45_1 <= 8.45233881841275
 0 <= xp_45_2 <= 8.45233881841275
 0 <= xp_46_0 <= 1594.36493299951
 0 <= xp_47_0 <= 872.841366217205
 0 <= xp_48_0 <= 2886.2905288665
 0 <= xp_49_0 <= 87.4673142431722
 0 <= xp_50_0 <= 623.117931715308
 0 <= xp_50_1 <= 155.779482928827
 0 <= xp_51_0 <= 704.645057377119
 0 <= xp_52_0 <= 657.803922748763
 0 <= xp_53_0 <= 113.164517709678
 0 <= xp_53_1 <= 75.4430118064519
 0 <= xp_54_0 <= 3667.93560783241
 0 <= xp_55_0 <= 1176.98163840607
 0 <= xp_56_0 <= 95.1215219966884
 0 <= xp_57_0 <= 122.78134283589
 0 <= xp_57_1 <= 81.8542285572603
 0 <= xp_58_0 <= 4515.06668646729
 0 <= xp_59_0 <= 10570.7225899222
 0 <= xp_60_0 <= 538.542207067909
 0 <= xp_60_1 <= 134.635551766977
 0 <= xp_61_0 <= 961.342325609998
 0 <= xp_61_1 <= 1442.013488415
 0 <= xp_62_0 <= 130.317793547045
 0 <= xp_63_0 <= 104.725263007083
 0 <= xp_63_1 <= 26.1813157517708
 0 <= xp_64_0 <= 987.523641361769
 0 <= xp_65_0 <= 415.028153746211
 0 <= xp_65_1 <= 103.757038436553
 0 <= xp_66_0 <= 1668.42102852926
 0 <= xp_67_0 <= 241.087918062033
 0 <= xp_67_1 <= 160.725278708022
 0 <= xp_68_0 <= 585.27866876972
 0 <= xp_68_1 <= 877.91800315458
 0 <= xp_69_0 <= 1706.75748787593
 0 <= xp_70_0 <= 627.317932892878
 0 <= xp_71_0 <= 70.392543100713
 0 <= xp_72_0 <= 594.934746243387
 0 <= xp_73_0 <= 916.673154207426
 0 <= xp_74_0 <= 946.701200009682
 0 <= xp_75_0 <= 1751.89768744795
 0 <= xp_76_0 <= 1710.29019914678
 0 <= xp_77_0 <= 340.945889984829
 0 <= xp_77_1 <= 113.648629994943
 0 <= xp_77_2 <= 113.648629994943
 0 <= xp_78_0 <= 5560.34361504961
 0 <= xp_78_1 <= 11120.6872300992
 0 <= xp_78_2 <= 5560.34361504961
 0 <= xp_78_3 <= 5560.34361504961
 0 <= xp_79_0 <= 423.349651406444
 0 <= xp_79_1 <= 211.674825703222
 0 <= xp_79_2 <= 423.349651406444
 0 <= xp_80_0 <= 134.400037682254
 0 <= xp_80_1 <= 89.6000251215024
 0 <= xp_81_0 <= 155.517800612467
 0 <= xp_81_1 <= 103.678533741645
 0 <= xp_82_0 <= 131.024335801216
 0 <= xp_82_1 <= 43.6747786004052
 0 <= xp_82_2 <= 43.6747786004052
 0 <= xp_83_0 <= 400.478616956622
 0 <= xp_83_1 <= 100.119654239155
 0 <= xp_84_0 <= 884.289967557935
 0 <= xp_85_0 <= 81.2131068821795
 0 <= xp_85_1 <= 162.426213764359
 0 <= xp_85_2 <= 81.2131068821795
 0 <= xp_85_3 <= 81.2131068821795
 0 <= xp_86_0 <= 136.284150360042
 0 <= xp_86_1 <= 34.0710375900105
 0 <= xp_87_0 <= 140.392562726887
 0 <= xp_88_0 <= 338.041216273238
 0 <= xp_88_1 <= 84.5103040683095
 0 <= xp_89_0 <= 2206.89781501808
 0 <= xp_90_0 <= 17253.9188562389
 0 <= xp_90_1 <= 4313.47971405973
 0 <= xp_91_0 <= 1081.76852759865
 0 <= xp_91_1 <= 540.884263799326
 0 <= xp_91_2 <= 1081.76852759865
 0 <= xp_92_0 <= 66.4673083553201
 0 <= xp_93_0 <= 129.663587756146
 0 <= xp_94_0 <= 188.515940705404
 0 <= xp_94_1 <= 47.128985176351
 0 <= xp_95_0 <= 36.583187827062
 0 <= xp_95_1 <= 12.194395942354
 0 <= xp_95_2 <= 12.194395942354
 0 <= xp_96_0 <= 114.747695723653
 0 <= xp_97_0 <= 524.411361984494
 0 <= xp_98_0 <= 56.8897355765614
 0 <= xp_98_1 <= 56.8897355765614
 0 <= xp_98_2 <= 28.4448677882807
 0 <= xp_99_0 <= 3.25794483867612
 0 <= xp_99_1 <= 6.51588967735225
 0 <= xp_99_2 <= 6.51588967735225
 0 <= xp_100_0 <= 500.402009458507
 0 <= xp_101_0 <= 248.598200541552
 0 <= xp_102_0 <= 74.5794601624655
 0 <= xp_103_0 <= 1432.44899975206
 0 <= xp_104_0 <= 131.233681654303
 0 <= xp_105_0 <= 1154.01901514552
 0 <= xp_105_1 <= 288.50475378638
 0 <= xp_106_0 <= 16.4859859306503
 0 <= xp_106_1 <= 24.7289788959754
 0 <= xp_107_0 <= 447.476760974793
 0 <= xp_108_0 <= 168.955187557529
 0 <= xp_108_1 <= 506.865562672588
 0 <= xp_108_2 <= 168.955187557529
 0 <= xp_109_0 <= 769.450683023556
 0 <= xp_109_1 <= 192.362670755889
 0 <= xp_110_0 <= 132.542093236101
 0 <= xp_111_0 <= 2328.13523218745
 0 <= xp_111_1 <= 582.033808046862
 0 <= xp_112_0 <= 3726.19917556986
 0 <= xp_112_1 <= 931.549793892466
 0 <= xp_113_0 <= 423.271146711536
 0 <= xp_114_0 <= 2385.75767824982
 0 <= xp_115_0 <= 131.887887445202
 0 <= xp_115_1 <= 87.9252582968014
 0 <= xp_116_0 <= 95.343951965594
 0 <= xp_116_1 <= 63.5626346437293
 0 <= xp_117_0 <= 1933.50521500146
 0 <= xp_118_0 <= 3138.87938473254
 0 <= xp_119_0 <= 24.9906612123349
 0 <= xp_119_1 <= 37.4859918185024
 0 <= xp_120_0 <= 2158.74826880793
 0 <= xp_121_0 <= 75.1682453742744
 0 <= xp_122_0 <= 2263.35577477265
 0 <= xp_123_0 <= 409.009460469942
 0 <= xp_123_1 <= 102.252365117486
 0 <= xp_124_0 <= 109.59255409137
 0 <= xp_124_1 <= 27.3981385228426
 0 <= xp_125_0 <= 16.2897241933806
 0 <= xp_125_1 <= 10.8598161289204
 0 <= xp_126_0 <= 5050.35094869653
 0 <= xp_126_1 <= 10100.7018973931
 0 <= xp_126_2 <= 10100.7018973931
 0 <= xp_127_0 <= 459.147792284428
 0 <= xp_127_1 <= 114.786948071107
 0 <= xp_128_0 <= 80.8205834076402
 0 <= xp_128_1 <= 161.64116681528
 0 <= xp_128_2 <= 161.64116681528
 0 <= xp_129_0 <= 19.4953325687848
 0 <= xp_129_1 <= 29.2429988531772
 0 <= xp_130_0 <= 401.616935032785
 0 <= xp_131_0 <= 305.566440813021
 0 <= xp_131_1 <= 152.78322040651
 0 <= xp_131_2 <= 305.566440813021

End
